67 16 
63 4 
95 71 
39 71 
10 6 
25 43 
66 39 
25 44 
47 11 
49 85 
81 61 
61 30 
13 65 
69 32 
12 16 
23 79 
33 38 
83 28 
9 74 
52 19 
32 29 
15 99 
69 92 
95 68 
56 96 
53 37 
58 15 
19 23 
80 40 
56 92 
57 31 
24 42 
70 59 
70 31 
86 74 
3 18 
4 70 
69 73 
62 64 
41 70 
61 46 
7 19 
61 78 
94 94 
71 50 
38 28 
82 62 
70 4 
74 92 
35 12 
